244 5
10 10 10 10 10 

0 0 0 0 0 0 5 2 14 26 38 50 
0 0 0 0 0 0 4 3 5 7 8 
6 0 0 0 4 0 2 10 4 
10 0 0 0 6 0 3 12 11 9 
2 0 0 0 8 0 1 6 
2 0 0 0 6 0 1 9 
10 0 0 0 10 0 1 10 
9 0 0 0 4 0 1 10 
3 0 0 0 10 0 1 13 
8 0 0 0 8 0 2 13 168 
7 0 0 0 10 0 1 13 
10 0 0 0 9 0 1 13 
0 0 0 0 0 0 1 62 
0 0 0 0 0 0 5 15 17 19 20 24 
3 0 0 0 0 7 3 23 18 16 
2 0 0 0 0 6 2 22 21 
2 0 0 0 0 6 1 18 
1 0 0 0 0 6 1 21 
10 0 0 0 0 10 1 21 
7 0 0 0 0 7 1 21 
8 0 0 0 0 8 2 25 53 
7 0 0 0 0 9 1 25 
10 0 0 0 0 9 1 25 
5 0 0 0 0 7 1 25 
0 0 0 0 0 0 1 62 
0 0 0 0 0 0 5 27 29 30 31 36 
8 0 0 0 0 6 2 32 28 
2 0 0 0 0 8 4 35 34 33 93 
9 0 0 0 0 6 1 33 
1 0 0 0 0 3 1 32 
7 0 0 0 0 6 1 32 
8 0 0 0 0 9 1 37 
3 0 0 0 0 10 1 37 
2 0 0 0 0 10 1 37 
4 0 0 0 0 10 1 37 
7 0 0 0 0 7 1 37 
0 0 0 0 0 0 1 62 
0 0 0 0 0 0 6 39 40 41 42 43 48 
10 0 0 2 0 0 2 47 44 
10 0 0 10 0 0 2 47 45 
1 0 0 9 0 0 2 46 45 
1 0 0 10 0 0 2 46 45 
1 0 0 7 0 0 2 44 202 
4 0 0 10 0 0 1 45 
5 0 0 4 0 0 1 49 
9 0 0 10 0 0 1 49 
7 0 0 6 0 0 1 49 
4 0 0 7 0 0 1 49 
0 0 0 0 0 0 1 62 
0 0 0 0 0 0 6 51 52 53 54 56 60 
5 0 0 0 8 0 2 58 55 
4 0 0 0 9 0 2 59 57 
8 0 0 0 8 0 2 58 57 
4 0 0 0 9 0 2 55 207 
6 0 0 0 10 0 1 57 
2 0 0 0 4 0 1 57 
7 0 0 0 6 0 1 61 
5 0 0 0 6 0 1 61 
7 0 0 0 5 0 1 61 
10 0 0 0 10 0 1 61 
0 0 0 0 0 0 1 62 
0 0 0 0 0 0 5 63 75 87 99 111 
0 0 0 0 0 0 4 64 65 66 73 
6 0 0 0 2 0 3 72 71 67 
8 0 0 0 9 0 3 71 70 68 
9 0 0 0 8 0 3 71 70 68 
6 0 0 0 10 0 3 70 69 105 
6 0 0 0 6 0 1 69 
4 0 0 0 9 0 1 74 
3 0 0 0 10 0 1 74 
2 0 0 0 7 0 1 74 
9 0 0 0 9 0 1 74 
9 0 0 0 5 0 1 74 
0 0 0 0 0 0 1 123 
0 0 0 0 0 0 5 76 77 78 79 82 
5 0 7 0 0 0 3 85 84 81 
5 0 4 0 0 0 4 85 83 80 187 
2 0 10 0 0 0 3 85 84 83 
5 0 8 0 0 0 1 80 
10 0 6 0 0 0 1 84 
2 0 8 0 0 0 1 83 
8 0 10 0 0 0 1 83 
6 0 10 0 0 0 1 86 
3 0 9 0 0 0 1 86 
1 0 3 0 0 0 1 86 
0 0 0 0 0 0 1 123 
0 0 0 0 0 0 5 88 89 91 92 93 
1 0 0 4 0 0 4 97 96 95 94 
2 0 0 3 0 0 1 90 
3 0 0 7 0 0 3 96 95 94 
1 0 0 10 0 0 2 97 95 
10 0 0 10 0 0 3 96 94 214 
7 0 0 10 0 0 2 95 94 
3 0 0 7 0 0 1 98 
4 0 0 6 0 0 1 98 
1 0 0 8 0 0 1 98 
8 0 0 10 0 0 1 98 
0 0 0 0 0 0 1 123 
0 0 0 0 0 0 3 100 101 102 
7 0 0 0 0 6 4 108 105 104 103 
7 0 0 0 0 3 3 108 106 104 
1 0 0 0 0 5 2 105 104 
4 0 0 0 0 10 3 109 107 106 
3 0 0 0 0 10 1 107 
7 0 0 0 0 7 1 106 
8 0 0 0 0 10 1 110 
5 0 0 0 0 9 1 110 
2 0 0 0 0 8 2 110 215 
1 0 0 0 0 7 1 110 
0 0 0 0 0 0 1 123 
0 0 0 0 0 0 3 112 114 116 
2 0 0 0 0 4 4 121 119 115 113 
1 0 0 0 0 7 2 120 117 
1 0 0 0 0 9 2 119 118 
8 0 0 0 0 9 2 118 229 
5 0 0 0 0 4 1 117 
3 0 0 0 0 7 1 122 
10 0 0 0 0 10 1 122 
1 0 0 0 0 8 1 122 
6 0 0 0 0 10 1 122 
2 0 0 0 0 7 1 122 
0 0 0 0 0 0 1 123 
0 0 0 0 0 0 5 124 136 148 160 172 
0 0 0 0 0 0 4 125 127 128 129 
4 0 0 3 0 0 3 133 126 177 
6 0 0 7 0 0 3 132 131 130 
1 0 0 9 0 0 3 134 133 130 
8 0 0 9 0 0 3 132 131 130 
2 0 0 10 0 0 1 130 
10 0 0 5 0 0 1 135 
3 0 0 6 0 0 1 135 
6 0 0 10 0 0 1 135 
7 0 0 7 0 0 1 135 
3 0 0 9 0 0 1 135 
0 0 0 0 0 0 1 184 
0 0 0 0 0 0 6 137 138 140 141 142 146 
10 0 0 0 4 0 2 145 144 
10 0 0 0 10 0 1 139 
3 0 0 0 7 0 1 143 
1 0 0 0 6 0 1 143 
7 0 0 0 7 0 1 143 
7 0 0 0 6 0 2 143 154 
5 0 0 0 10 0 1 147 
5 0 0 0 6 0 1 147 
5 0 0 0 9 0 1 147 
4 0 0 0 10 0 1 147 
0 0 0 0 0 0 1 184 
0 0 0 0 0 0 7 149 150 151 152 154 158 173 
7 0 0 0 5 0 3 157 156 155 
10 0 0 0 4 0 2 156 153 
3 0 0 0 6 0 2 156 155 
3 0 0 0 8 0 1 153 
9 0 0 0 10 0 1 155 
1 0 0 0 7 0 1 155 
9 0 0 0 10 0 1 159 
4 0 0 0 5 0 1 159 
5 0 0 0 10 0 1 159 
6 0 0 0 10 0 1 159 
0 0 0 0 0 0 1 184 
0 0 0 0 0 0 5 161 162 164 169 170 
9 0 3 0 0 0 2 167 163 
6 0 9 0 0 0 4 168 167 166 165 
2 0 5 0 0 0 3 168 166 165 
3 0 8 0 0 0 3 167 166 165 
8 0 6 0 0 0 1 171 
6 0 10 0 0 0 1 171 
8 0 10 0 0 0 2 171 193 
2 0 8 0 0 0 1 171 
9 0 6 0 0 0 1 171 
5 0 10 0 0 0 1 171 
0 0 0 0 0 0 1 184 
0 0 0 0 0 0 6 173 175 179 180 181 182 
9 0 0 5 0 0 2 178 174 
9 0 0 6 0 0 2 177 176 
8 0 0 9 0 0 2 177 176 
3 0 0 6 0 0 2 183 229 
7 0 0 10 0 0 1 183 
8 0 0 8 0 0 1 183 
7 0 0 10 0 0 1 183 
4 0 0 7 0 0 1 183 
1 0 0 10 0 0 1 183 
1 0 0 4 0 0 1 183 
0 0 0 0 0 0 1 184 
0 0 0 0 0 0 4 185 197 209 221 
0 0 0 0 0 0 5 186 187 188 190 191 
1 0 2 0 0 0 5 195 194 193 189 216 
1 0 5 0 0 0 2 193 189 
1 0 7 0 0 0 2 193 192 
2 0 9 0 0 0 1 192 
5 0 8 0 0 0 1 194 
3 0 10 0 0 0 1 192 
1 0 4 0 0 0 1 196 
2 0 10 0 0 0 1 196 
2 0 10 0 0 0 1 196 
10 0 10 0 0 0 1 196 
0 0 0 0 0 0 1 233 
0 0 0 0 0 0 6 198 200 201 202 206 207 
6 0 0 0 3 0 2 205 199 
6 0 0 0 8 0 1 203 
1 0 0 0 7 0 1 204 
10 0 0 0 4 0 2 203 223 
10 0 0 0 9 0 1 203 
10 0 0 0 7 0 1 208 
7 0 0 0 10 0 1 208 
8 0 0 0 8 0 1 208 
3 0 0 0 9 0 1 208 
5 0 0 0 10 0 1 208 
0 0 0 0 0 0 1 233 
0 0 0 0 0 0 5 210 211 212 213 215 
6 0 0 3 0 0 3 218 217 214 
9 0 0 8 0 0 3 218 217 216 
1 0 0 9 0 0 3 218 217 216 
1 0 0 8 0 0 1 214 
9 0 0 10 0 0 1 219 
5 0 0 7 0 0 2 216 231 
6 0 0 10 0 0 1 220 
8 0 0 4 0 0 1 220 
8 0 0 10 0 0 1 220 
5 0 0 6 0 0 1 220 
0 0 0 0 0 0 1 233 
0 0 0 0 0 0 3 222 224 225 
4 0 0 2 0 0 3 228 226 223 
6 0 0 9 0 0 4 231 230 229 227 
2 0 0 6 0 0 3 230 228 227 
10 0 0 8 0 0 3 229 228 227 
1 0 0 8 0 0 1 227 
5 0 0 10 0 0 1 232 
6 0 0 10 0 0 1 232 
3 0 0 8 0 0 1 232 
3 0 0 8 0 0 1 232 
7 0 0 6 0 0 1 232 
0 0 0 0 0 0 1 233 
0 0 0 0 0 0 2 234 235 
3 0 0 3 0 0 5 241 240 239 237 236 
9 0 0 6 0 0 5 240 239 238 237 236 
6 0 0 6 0 0 2 243 242 
8 0 0 10 0 0 2 243 242 
9 0 0 7 0 0 2 243 242 
1 0 0 10 0 0 1 242 
8 0 0 8 0 0 1 242 
8 0 0 9 0 0 1 243 
7 0 0 10 0 0 1 244 
1 0 0 6 0 0 1 244 
0 0 0 0 0 0 0 
